159,47
161,93
135,77
199,24
190,86
147,61
157,63
130,90
108,98
132,27
185,56
138,23
173,96
142,88
76,46
105,71
158,43
138,28
134,36
62,68
132,92
196,25
110,98
13,63
61,59
181,49
20,53
156,14
177,22
98,3
21,96
76,32
10,79
91,34
86,57
71,12
14,72
5,63
179,29
172,52
122,74
42,79
149,12
49,23
14,11
177,56
52,84
190,43
96,63
186,72
